p cnf 225 740
1 2 0
-1 -2 0
19 20 0
-19 -20 0
37 38 0
-37 -38 0
55 56 0
-55 -56 0
73 74 0
-73 -74 0
91 92 0
-91 -92 0
3 4 0
-3 -4 0
21 22 0
-21 -22 0
39 40 0
-39 -40 0
57 58 0
-57 -58 0
75 76 0
-75 -76 0
93 94 0
-93 -94 0
5 6 0
-5 -6 0
23 24 0
-23 -24 0
41 42 0
-41 -42 0
59 60 0
-59 -60 0
77 78 0
-77 -78 0
95 96 0
-95 -96 0
7 8 0
-7 -8 0
25 26 0
-25 -26 0
43 44 0
-43 -44 0
61 62 0
-61 -62 0
79 80 0
-79 -80 0
97 98 0
-97 -98 0
9 10 0
-9 -10 0
27 28 0
-27 -28 0
45 46 0
-45 -46 0
63 64 0
-63 -64 0
81 82 0
-81 -82 0
99 100 0
-99 -100 0
11 12 0
-11 -12 0
29 30 0
-29 -30 0
47 48 0
-47 -48 0
65 66 0
-65 -66 0
83 84 0
-83 -84 0
101 102 0
-101 -102 0
13 14 0
-13 -14 0
31 32 0
-31 -32 0
49 50 0
-49 -50 0
67 68 0
-67 -68 0
85 86 0
-85 -86 0
103 104 0
-103 -104 0
15 16 0
-15 -16 0
33 34 0
-33 -34 0
51 52 0
-51 -52 0
69 70 0
-69 -70 0
87 88 0
-87 -88 0
105 106 0
-105 -106 0
17 18 0
-17 -18 0
35 36 0
-35 -36 0
53 54 0
-53 -54 0
71 72 0
-71 -72 0
89 90 0
-89 -90 0
107 108 0
-107 -108 0
-1 -19 -91 4 0
-1 -20 -91 4 0
-1 -19 -92 4 0
-1 -20 -92 4 0
-2 -19 -91 4 0
-2 -20 -91 4 0
-2 -19 -92 4 0
-2 -20 -92 3 0
-19 -1 -37 22 0
-19 -2 -37 22 0
-19 -1 -38 22 0
-19 -2 -38 22 0
-20 -1 -37 22 0
-20 -2 -37 22 0
-20 -1 -38 22 0
-20 -2 -38 21 0
-37 -19 -55 40 0
-37 -20 -55 40 0
-37 -19 -56 40 0
-37 -20 -56 40 0
-38 -19 -55 40 0
-38 -20 -55 40 0
-38 -19 -56 40 0
-38 -20 -56 39 0
-55 -37 -73 58 0
-55 -38 -73 58 0
-55 -37 -74 58 0
-55 -38 -74 58 0
-56 -37 -73 58 0
-56 -38 -73 58 0
-56 -37 -74 58 0
-56 -38 -74 57 0
-73 -55 -91 76 0
-73 -56 -91 76 0
-73 -55 -92 76 0
-73 -56 -92 76 0
-74 -55 -91 76 0
-74 -56 -91 76 0
-74 -55 -92 76 0
-74 -56 -92 75 0
-91 -1 -73 94 0
-91 -2 -73 94 0
-91 -1 -74 94 0
-91 -2 -74 94 0
-92 -1 -73 94 0
-92 -2 -73 94 0
-92 -1 -74 94 0
-92 -2 -74 93 0
-3 -21 -93 6 0
-3 -22 -93 6 0
-3 -21 -94 6 0
-3 -22 -94 6 0
-4 -21 -93 6 0
-4 -22 -93 6 0
-4 -21 -94 6 0
-4 -22 -94 5 0
-21 -3 -39 24 0
-21 -4 -39 24 0
-21 -3 -40 24 0
-21 -4 -40 24 0
-22 -3 -39 24 0
-22 -4 -39 24 0
-22 -3 -40 24 0
-22 -4 -40 23 0
-39 -21 -57 42 0
-39 -22 -57 42 0
-39 -21 -58 42 0
-39 -22 -58 42 0
-40 -21 -57 42 0
-40 -22 -57 42 0
-40 -21 -58 42 0
-40 -22 -58 41 0
-57 -39 -75 60 0
-57 -40 -75 60 0
-57 -39 -76 60 0
-57 -40 -76 60 0
-58 -39 -75 60 0
-58 -40 -75 60 0
-58 -39 -76 60 0
-58 -40 -76 59 0
-75 -57 -93 78 0
-75 -58 -93 78 0
-75 -57 -94 78 0
-75 -58 -94 78 0
-76 -57 -93 78 0
-76 -58 -93 78 0
-76 -57 -94 78 0
-76 -58 -94 77 0
-93 -3 -75 96 0
-93 -4 -75 96 0
-93 -3 -76 96 0
-93 -4 -76 96 0
-94 -3 -75 96 0
-94 -4 -75 96 0
-94 -3 -76 96 0
-94 -4 -76 95 0
-5 -23 -95 8 0
-5 -24 -95 8 0
-5 -23 -96 8 0
-5 -24 -96 8 0
-6 -23 -95 8 0
-6 -24 -95 8 0
-6 -23 -96 8 0
-6 -24 -96 7 0
-23 -5 -41 26 0
-23 -6 -41 26 0
-23 -5 -42 26 0
-23 -6 -42 26 0
-24 -5 -41 26 0
-24 -6 -41 26 0
-24 -5 -42 26 0
-24 -6 -42 25 0
-41 -23 -59 44 0
-41 -24 -59 44 0
-41 -23 -60 44 0
-41 -24 -60 44 0
-42 -23 -59 44 0
-42 -24 -59 44 0
-42 -23 -60 44 0
-42 -24 -60 43 0
-59 -41 -77 62 0
-59 -42 -77 62 0
-59 -41 -78 62 0
-59 -42 -78 62 0
-60 -41 -77 62 0
-60 -42 -77 62 0
-60 -41 -78 62 0
-60 -42 -78 61 0
-77 -59 -95 80 0
-77 -60 -95 80 0
-77 -59 -96 80 0
-77 -60 -96 80 0
-78 -59 -95 80 0
-78 -60 -95 80 0
-78 -59 -96 80 0
-78 -60 -96 79 0
-95 -5 -77 98 0
-95 -6 -77 98 0
-95 -5 -78 98 0
-95 -6 -78 98 0
-96 -5 -77 98 0
-96 -6 -77 98 0
-96 -5 -78 98 0
-96 -6 -78 97 0
-7 -25 -97 10 0
-7 -26 -97 10 0
-7 -25 -98 10 0
-7 -26 -98 10 0
-8 -25 -97 10 0
-8 -26 -97 10 0
-8 -25 -98 10 0
-8 -26 -98 9 0
-25 -7 -43 28 0
-25 -8 -43 28 0
-25 -7 -44 28 0
-25 -8 -44 28 0
-26 -7 -43 28 0
-26 -8 -43 28 0
-26 -7 -44 28 0
-26 -8 -44 27 0
-43 -25 -61 46 0
-43 -26 -61 46 0
-43 -25 -62 46 0
-43 -26 -62 46 0
-44 -25 -61 46 0
-44 -26 -61 46 0
-44 -25 -62 46 0
-44 -26 -62 45 0
-61 -43 -79 64 0
-61 -44 -79 64 0
-61 -43 -80 64 0
-61 -44 -80 64 0
-62 -43 -79 64 0
-62 -44 -79 64 0
-62 -43 -80 64 0
-62 -44 -80 63 0
-79 -61 -97 82 0
-79 -62 -97 82 0
-79 -61 -98 82 0
-79 -62 -98 82 0
-80 -61 -97 82 0
-80 -62 -97 82 0
-80 -61 -98 82 0
-80 -62 -98 81 0
-97 -7 -79 100 0
-97 -8 -79 100 0
-97 -7 -80 100 0
-97 -8 -80 100 0
-98 -7 -79 100 0
-98 -8 -79 100 0
-98 -7 -80 100 0
-98 -8 -80 99 0
-9 -27 -99 12 0
-9 -28 -99 12 0
-9 -27 -100 12 0
-9 -28 -100 12 0
-10 -27 -99 12 0
-10 -28 -99 12 0
-10 -27 -100 12 0
-10 -28 -100 11 0
-27 -9 -45 30 0
-27 -10 -45 30 0
-27 -9 -46 30 0
-27 -10 -46 30 0
-28 -9 -45 30 0
-28 -10 -45 30 0
-28 -9 -46 30 0
-28 -10 -46 29 0
-45 -27 -63 48 0
-45 -28 -63 48 0
-45 -27 -64 48 0
-45 -28 -64 48 0
-46 -27 -63 48 0
-46 -28 -63 48 0
-46 -27 -64 48 0
-46 -28 -64 47 0
-63 -45 -81 66 0
-63 -46 -81 66 0
-63 -45 -82 66 0
-63 -46 -82 66 0
-64 -45 -81 66 0
-64 -46 -81 66 0
-64 -45 -82 66 0
-64 -46 -82 65 0
-81 -63 -99 84 0
-81 -64 -99 84 0
-81 -63 -100 84 0
-81 -64 -100 84 0
-82 -63 -99 84 0
-82 -64 -99 84 0
-82 -63 -100 84 0
-82 -64 -100 83 0
-99 -9 -81 102 0
-99 -10 -81 102 0
-99 -9 -82 102 0
-99 -10 -82 102 0
-100 -9 -81 102 0
-100 -10 -81 102 0
-100 -9 -82 102 0
-100 -10 -82 101 0
-11 -29 -101 14 0
-11 -30 -101 14 0
-11 -29 -102 14 0
-11 -30 -102 14 0
-12 -29 -101 14 0
-12 -30 -101 14 0
-12 -29 -102 14 0
-12 -30 -102 13 0
-29 -11 -47 32 0
-29 -12 -47 32 0
-29 -11 -48 32 0
-29 -12 -48 32 0
-30 -11 -47 32 0
-30 -12 -47 32 0
-30 -11 -48 32 0
-30 -12 -48 31 0
-47 -29 -65 50 0
-47 -30 -65 50 0
-47 -29 -66 50 0
-47 -30 -66 50 0
-48 -29 -65 50 0
-48 -30 -65 50 0
-48 -29 -66 50 0
-48 -30 -66 49 0
-65 -47 -83 68 0
-65 -48 -83 68 0
-65 -47 -84 68 0
-65 -48 -84 68 0
-66 -47 -83 68 0
-66 -48 -83 68 0
-66 -47 -84 68 0
-66 -48 -84 67 0
-83 -65 -101 86 0
-83 -66 -101 86 0
-83 -65 -102 86 0
-83 -66 -102 86 0
-84 -65 -101 86 0
-84 -66 -101 86 0
-84 -65 -102 86 0
-84 -66 -102 85 0
-101 -11 -83 104 0
-101 -12 -83 104 0
-101 -11 -84 104 0
-101 -12 -84 104 0
-102 -11 -83 104 0
-102 -12 -83 104 0
-102 -11 -84 104 0
-102 -12 -84 103 0
-13 -31 -103 16 0
-13 -32 -103 16 0
-13 -31 -104 16 0
-13 -32 -104 16 0
-14 -31 -103 16 0
-14 -32 -103 16 0
-14 -31 -104 16 0
-14 -32 -104 15 0
-31 -13 -49 34 0
-31 -14 -49 34 0
-31 -13 -50 34 0
-31 -14 -50 34 0
-32 -13 -49 34 0
-32 -14 -49 34 0
-32 -13 -50 34 0
-32 -14 -50 33 0
-49 -31 -67 52 0
-49 -32 -67 52 0
-49 -31 -68 52 0
-49 -32 -68 52 0
-50 -31 -67 52 0
-50 -32 -67 52 0
-50 -31 -68 52 0
-50 -32 -68 51 0
-67 -49 -85 70 0
-67 -50 -85 70 0
-67 -49 -86 70 0
-67 -50 -86 70 0
-68 -49 -85 70 0
-68 -50 -85 70 0
-68 -49 -86 70 0
-68 -50 -86 69 0
-85 -67 -103 88 0
-85 -68 -103 88 0
-85 -67 -104 88 0
-85 -68 -104 88 0
-86 -67 -103 88 0
-86 -68 -103 88 0
-86 -67 -104 88 0
-86 -68 -104 87 0
-103 -13 -85 106 0
-103 -14 -85 106 0
-103 -13 -86 106 0
-103 -14 -86 106 0
-104 -13 -85 106 0
-104 -14 -85 106 0
-104 -13 -86 106 0
-104 -14 -86 105 0
-15 -33 -105 18 0
-15 -34 -105 18 0
-15 -33 -106 18 0
-15 -34 -106 18 0
-16 -33 -105 18 0
-16 -34 -105 18 0
-16 -33 -106 18 0
-16 -34 -106 17 0
-33 -15 -51 36 0
-33 -16 -51 36 0
-33 -15 -52 36 0
-33 -16 -52 36 0
-34 -15 -51 36 0
-34 -16 -51 36 0
-34 -15 -52 36 0
-34 -16 -52 35 0
-51 -33 -69 54 0
-51 -34 -69 54 0
-51 -33 -70 54 0
-51 -34 -70 54 0
-52 -33 -69 54 0
-52 -34 -69 54 0
-52 -33 -70 54 0
-52 -34 -70 53 0
-69 -51 -87 72 0
-69 -52 -87 72 0
-69 -51 -88 72 0
-69 -52 -88 72 0
-70 -51 -87 72 0
-70 -52 -87 72 0
-70 -51 -88 72 0
-70 -52 -88 71 0
-87 -69 -105 90 0
-87 -70 -105 90 0
-87 -69 -106 90 0
-87 -70 -106 90 0
-88 -69 -105 90 0
-88 -70 -105 90 0
-88 -69 -106 90 0
-88 -70 -106 89 0
-105 -15 -87 108 0
-105 -16 -87 108 0
-105 -15 -88 108 0
-105 -16 -88 108 0
-106 -15 -87 108 0
-106 -16 -87 108 0
-106 -15 -88 108 0
-106 -16 -88 107 0
110 111 112 113 114 115 116 117 0
120 121 -110 0
1 -120 0
3 -120 0
2 -121 0
4 -121 0
138 139 -110 0
19 -138 0
21 -138 0
20 -139 0
22 -139 0
156 157 -110 0
37 -156 0
39 -156 0
38 -157 0
40 -157 0
174 175 -110 0
55 -174 0
57 -174 0
56 -175 0
58 -175 0
192 193 -110 0
73 -192 0
75 -192 0
74 -193 0
76 -193 0
210 211 -110 0
91 -210 0
93 -210 0
92 -211 0
94 -211 0
122 123 -111 0
1 -122 0
5 -122 0
2 -123 0
6 -123 0
140 141 -111 0
19 -140 0
23 -140 0
20 -141 0
24 -141 0
158 159 -111 0
37 -158 0
41 -158 0
38 -159 0
42 -159 0
176 177 -111 0
55 -176 0
59 -176 0
56 -177 0
60 -177 0
194 195 -111 0
73 -194 0
77 -194 0
74 -195 0
78 -195 0
212 213 -111 0
91 -212 0
95 -212 0
92 -213 0
96 -213 0
124 125 -112 0
1 -124 0
7 -124 0
2 -125 0
8 -125 0
142 143 -112 0
19 -142 0
25 -142 0
20 -143 0
26 -143 0
160 161 -112 0
37 -160 0
43 -160 0
38 -161 0
44 -161 0
178 179 -112 0
55 -178 0
61 -178 0
56 -179 0
62 -179 0
196 197 -112 0
73 -196 0
79 -196 0
74 -197 0
80 -197 0
214 215 -112 0
91 -214 0
97 -214 0
92 -215 0
98 -215 0
126 127 -113 0
1 -126 0
9 -126 0
2 -127 0
10 -127 0
144 145 -113 0
19 -144 0
27 -144 0
20 -145 0
28 -145 0
162 163 -113 0
37 -162 0
45 -162 0
38 -163 0
46 -163 0
180 181 -113 0
55 -180 0
63 -180 0
56 -181 0
64 -181 0
198 199 -113 0
73 -198 0
81 -198 0
74 -199 0
82 -199 0
216 217 -113 0
91 -216 0
99 -216 0
92 -217 0
100 -217 0
128 129 -114 0
1 -128 0
11 -128 0
2 -129 0
12 -129 0
146 147 -114 0
19 -146 0
29 -146 0
20 -147 0
30 -147 0
164 165 -114 0
37 -164 0
47 -164 0
38 -165 0
48 -165 0
182 183 -114 0
55 -182 0
65 -182 0
56 -183 0
66 -183 0
200 201 -114 0
73 -200 0
83 -200 0
74 -201 0
84 -201 0
218 219 -114 0
91 -218 0
101 -218 0
92 -219 0
102 -219 0
130 131 -115 0
1 -130 0
13 -130 0
2 -131 0
14 -131 0
148 149 -115 0
19 -148 0
31 -148 0
20 -149 0
32 -149 0
166 167 -115 0
37 -166 0
49 -166 0
38 -167 0
50 -167 0
184 185 -115 0
55 -184 0
67 -184 0
56 -185 0
68 -185 0
202 203 -115 0
73 -202 0
85 -202 0
74 -203 0
86 -203 0
220 221 -115 0
91 -220 0
103 -220 0
92 -221 0
104 -221 0
132 133 -116 0
1 -132 0
15 -132 0
2 -133 0
16 -133 0
150 151 -116 0
19 -150 0
33 -150 0
20 -151 0
34 -151 0
168 169 -116 0
37 -168 0
51 -168 0
38 -169 0
52 -169 0
186 187 -116 0
55 -186 0
69 -186 0
56 -187 0
70 -187 0
204 205 -116 0
73 -204 0
87 -204 0
74 -205 0
88 -205 0
222 223 -116 0
91 -222 0
105 -222 0
92 -223 0
106 -223 0
134 135 -117 0
1 -134 0
17 -134 0
2 -135 0
18 -135 0
152 153 -117 0
19 -152 0
35 -152 0
20 -153 0
36 -153 0
170 171 -117 0
37 -170 0
53 -170 0
38 -171 0
54 -171 0
188 189 -117 0
55 -188 0
71 -188 0
56 -189 0
72 -189 0
206 207 -117 0
73 -206 0
89 -206 0
74 -207 0
90 -207 0
224 225 -117 0
91 -224 0
107 -224 0
92 -225 0
108 -225 0
-1 -19 -37 -55 -73 -91 0
-2 -20 -38 -56 -74 -92 0
-19 -2 0
-37 -2 0
-55 -2 0
-73 -2 0
-91 -2 0
